robust/generate/spp_dkp_Lefebvre_et_al_2026/src/shortest_path_4_2.kp
44
89

[7.43 0.93 6.63 3.21 3.2 5.42 3.5 3.64 4.54 6.32]

[77 11 77 60 43 49 76 61 89 51]
